
Gurobi 9.5.2 (mac64[arm]) logging started Fri Apr 28 17:25:23 2023

Set parameter LogFile to value "Java/output/iterative_model_2_machine/scenario_seed_0_nJob_30_machineCount_2/mip_increment_1/log.txt"
Gurobi Optimizer version 9.5.2 build v9.5.2rc0 (mac64[arm])
Thread count: 8 physical cores, 8 logical processors, using up to 8 threads
Optimize a model with 1760 rows, 9372 columns and 124988 nonzeros
Model fingerprint: 0xc8f88b2f
Variable types: 0 continuous, 9372 integer (9372 binary)
Coefficient statistics:
  Matrix range     [1e+00, 2e+02]
  Objective range  [6e+01, 3e+06]
  Bounds range     [1e+00, 1e+00]
  RHS range        [1e+00, 1e+00]
Presolve removed 310 rows and 2152 columns
Presolve time: 0.15s
Presolved: 1450 rows, 7220 columns, 96844 nonzeros
Variable types: 0 continuous, 7220 integer (7220 binary)

Root relaxation: objective 1.312526e+05, 1339 iterations, 0.05 seconds (0.12 work units)

    Nodes    |    Current Node    |     Objective Bounds      |     Work
 Expl Unexpl |  Obj  Depth IntInf | Incumbent    BestBd   Gap | It/Node Time

     0     0 131252.558    0   94          - 131252.558      -     -    0s
H    0     0                    7389200.0000 131252.558  98.2%     -    0s
H    0     0                    6302624.0000 131252.558  97.9%     -    0s
H    0     0                    5463440.0000 131252.558  97.6%     -    0s
H    0     0                    3427200.0000 131252.558  96.2%     -    0s
H    0     0                    2231824.0000 131252.558  94.1%     -    0s
H    0     0                    2188384.0000 131252.558  94.0%     -    0s
H    0     0                    2171552.0000 131463.114  93.9%     -    0s
     0     0 142948.014    0  149 2171552.00 142948.014  93.4%     -    0s
H    0     0                    2126080.0000 142948.014  93.3%     -    0s
H    0     0                    1116400.0000 142948.014  87.2%     -    0s
H    0     0                    803440.00000 142948.014  82.2%     -    0s
     0     0 153196.285    0  168 803440.000 153196.285  80.9%     -    0s
H    0     0                    678816.00000 153196.285  77.4%     -    0s
     0     0 153530.871    0  169 678816.000 153530.871  77.4%     -    0s
     0     0 153612.575    0  179 678816.000 153612.575  77.4%     -    0s
H    0     0                    666592.00000 167836.269  74.8%     -    0s
H    0     0                    558208.00000 167836.269  69.9%     -    0s
     0     0 167836.269    0  192 558208.000 167836.269  69.9%     -    0s
H    0     0                    537952.00000 167836.269  68.8%     -    0s
H    0     0                    537776.00000 167836.269  68.8%     -    0s
     0     0 171372.521    0  194 537776.000 171372.521  68.1%     -    0s
     0     0 172232.187    0  197 537776.000 172232.187  68.0%     -    0s
     0     0 172362.834    0  211 537776.000 172362.834  67.9%     -    0s
     0     0 172362.992    0  206 537776.000 172362.992  67.9%     -    0s
H    0     0                    515664.00000 172362.992  66.6%     -    1s
     0     0 182983.154    0  220 515664.000 182983.154  64.5%     -    1s
H    0     0                    512288.00000 182983.154  64.3%     -    1s
H    0     0                    463184.00000 188955.112  59.2%     -    1s
     0     0 188955.112    0  228 463184.000 188955.112  59.2%     -    1s
H    0     0                    409440.00000 189890.753  53.6%     -    1s
     0     0 189890.753    0  239 409440.000 189890.753  53.6%     -    1s
     0     0 190463.906    0  247 409440.000 190463.906  53.5%     -    1s
     0     0 190695.394    0  234 409440.000 190695.394  53.4%     -    1s
     0     0 190761.915    0  242 409440.000 190761.915  53.4%     -    1s
H    0     0                    407344.00000 190780.377  53.2%     -    1s
     0     0 190780.377    0  247 407344.000 190780.377  53.2%     -    1s
     0     0 192734.942    0  252 407344.000 192734.942  52.7%     -    1s
     0     0 192734.942    0   94 407344.000 192734.942  52.7%     -    1s
     0     0 192734.942    0  197 407344.000 192734.942  52.7%     -    1s
H    0     0                    405328.00000 192734.942  52.4%     -    1s
     0     0 192734.942    0  229 405328.000 192734.942  52.4%     -    1s
     0     0 192734.942    0  239 405328.000 192734.942  52.4%     -    2s
     0     0 192755.069    0  247 405328.000 192755.069  52.4%     -    2s
     0     0 192960.383    0  250 405328.000 192960.383  52.4%     -    2s
     0     0 192962.476    0  249 405328.000 192962.476  52.4%     -    2s
     0     0 196208.984    0  246 405328.000 196208.984  51.6%     -    2s
H    0     0                    392960.00000 196208.984  50.1%     -    2s
     0     0 196458.524    0  240 392960.000 196458.524  50.0%     -    2s
     0     0 196599.440    0  251 392960.000 196599.440  50.0%     -    2s
     0     0 196601.838    0  255 392960.000 196601.838  50.0%     -    2s
     0     0 202865.295    0  237 392960.000 202865.295  48.4%     -    2s
     0     0 206412.227    0  250 392960.000 206412.227  47.5%     -    2s
     0     0 207751.456    0  248 392960.000 207751.456  47.1%     -    2s
     0     0 207798.471    0  247 392960.000 207798.471  47.1%     -    2s
     0     0 211223.573    0  258 392960.000 211223.573  46.2%     -    2s
     0     0 212621.068    0  277 392960.000 212621.068  45.9%     -    2s
     0     0 212708.661    0  270 392960.000 212708.661  45.9%     -    2s
     0     0 212768.936    0  272 392960.000 212768.936  45.9%     -    2s
H    0     0                    344096.00000 212768.936  38.2%     -    2s
     0     0 212812.512    0  279 344096.000 212812.512  38.2%     -    2s
     0     0 213412.521    0  271 344096.000 213412.521  38.0%     -    2s
H    0     0                    287824.00000 213412.521  25.9%     -    3s
     0     0 213529.119    0  272 287824.000 213529.119  25.8%     -    3s
     0     0 213597.958    0  283 287824.000 213597.958  25.8%     -    3s
     0     0 213609.278    0  283 287824.000 213609.278  25.8%     -    3s
     0     0 213900.147    0  265 287824.000 213900.147  25.7%     -    3s
     0     0 213900.147    0  263 287824.000 213900.147  25.7%     -    3s
     0     2 213906.908    0  259 287824.000 213906.908  25.7%     -    3s
H   99    96                    270192.00000 221656.632  18.0%   348    4s
H  284   228                    265216.00000 221656.632  16.4%   272    4s
   329   240     cutoff   26      265216.000 221656.632  16.4%   255    5s
*  447   263              21    263920.00000 223214.108  15.4%   236    5s
H  621   339                    257344.00000 224073.924  12.9%   222    5s
* 2238   504              16    256912.00000 235337.299  8.40%   192    9s
  2468   559 243245.130   10  226 256912.000 236259.545  8.04%   191   10s
H 4509   545                    254816.00000 243900.936  4.28%   176   14s
  4779   461     cutoff   18      254816.000 245181.611  3.78%   173   15s

Cutting planes:
  Cover: 23
  Clique: 66
  MIR: 140
  StrongCG: 47
  GUB cover: 65
  Inf proof: 1
  Zero half: 10
  Mod-K: 4
  RLT: 6

Explored 5882 nodes (953865 simplex iterations) in 15.91 seconds (43.53 work units)
Thread count was 8 (of 8 available processors)

Solution count 10: 254816 256912 257344 ... 405328

Optimal solution found (tolerance 1.00e-04)
Best objective 2.548160000000e+05, best bound 2.548160000000e+05, gap 0.0000%

Gurobi 9.5.2 (mac64[arm]) logging started Fri Apr 28 17:25:39 2023

Set parameter LogFile to value "Java/output/iterative_model_2_machine/scenario_seed_0_nJob_30_machineCount_2/mip_increment_1/log.txt"
Gurobi Optimizer version 9.5.2 build v9.5.2rc0 (mac64[arm])
Thread count: 8 physical cores, 8 logical processors, using up to 8 threads
Optimize a model with 1754 rows, 6017 columns and 74465 nonzeros
Model fingerprint: 0x314cb81a
Variable types: 0 continuous, 6017 integer (6017 binary)
Coefficient statistics:
  Matrix range     [1e+00, 2e+02]
  Objective range  [4e+01, 3e+05]
  Bounds range     [1e+00, 1e+00]
  RHS range        [1e+00, 1e+00]
Found heuristic solution: objective 1011560.0000
Presolve removed 709 rows and 1356 columns
Presolve time: 0.09s
Presolved: 1045 rows, 4661 columns, 55845 nonzeros
Variable types: 0 continuous, 4661 integer (4661 binary)
Found heuristic solution: objective 745960.00000

Root relaxation: objective 2.020133e+04, 412 iterations, 0.01 seconds (0.01 work units)

    Nodes    |    Current Node    |     Objective Bounds      |     Work
 Expl Unexpl |  Obj  Depth IntInf | Incumbent    BestBd   Gap | It/Node Time

     0     0 20201.3333    0   44 745960.000 20201.3333  97.3%     -    0s
H    0     0                    567112.00000 20201.3333  96.4%     -    0s
H    0     0                    375008.00000 20201.3333  94.6%     -    0s
H    0     0                    234680.00000 20201.3333  91.4%     -    0s
H    0     0                    91444.000000 20201.3333  77.9%     -    0s
H    0     0                    21020.000000 20675.4795  1.64%     -    0s
     0     0     cutoff    0      21020.0000 21020.0000  0.00%     -    0s

Cutting planes:
  Gomory: 5
  Cover: 9
  Clique: 21
  MIR: 12
  StrongCG: 12
  GUB cover: 8
  Zero half: 6
  RLT: 8

Explored 1 nodes (849 simplex iterations) in 0.17 seconds (0.34 work units)
Thread count was 8 (of 8 available processors)

Solution count 7: 21020 91444 234680 ... 1.01156e+06

Optimal solution found (tolerance 1.00e-04)
Best objective 2.102000000000e+04, best bound 2.102000000000e+04, gap 0.0000%

Gurobi 9.5.2 (mac64[arm]) logging started Fri Apr 28 17:25:39 2023

Set parameter LogFile to value "Java/output/iterative_model_2_machine/scenario_seed_0_nJob_30_machineCount_2/mip_increment_1/log.txt"
Gurobi Optimizer version 9.5.2 build v9.5.2rc0 (mac64[arm])
Thread count: 8 physical cores, 8 logical processors, using up to 8 threads
Optimize a model with 1754 rows, 4024 columns and 49061 nonzeros
Model fingerprint: 0xa779be0b
Variable types: 0 continuous, 4024 integer (4024 binary)
Coefficient statistics:
  Matrix range     [1e+00, 2e+02]
  Objective range  [8e+01, 5e+04]
  Bounds range     [1e+00, 1e+00]
  RHS range        [1e+00, 1e+00]
Presolve removed 1051 rows and 953 columns
Presolve time: 0.06s
Presolved: 703 rows, 3071 columns, 36585 nonzeros
Variable types: 0 continuous, 3071 integer (3071 binary)

Root relaxation: objective 9.204593e+03, 506 iterations, 0.01 seconds (0.01 work units)

    Nodes    |    Current Node    |     Objective Bounds      |     Work
 Expl Unexpl |  Obj  Depth IntInf | Incumbent    BestBd   Gap | It/Node Time

     0     0 9204.59304    0   46          - 9204.59304      -     -    0s
H    0     0                    77561.000000 9204.59304  88.1%     -    0s
H    0     0                    42426.000000 9204.59304  78.3%     -    0s
H    0     0                    34241.000000 9204.59304  73.1%     -    0s
H    0     0                    18578.000000 9204.59304  50.5%     -    0s
H    0     0                    10124.000000 9204.59304  9.08%     -    0s
     0     0 9727.17302    0   57 10124.0000 9727.17302  3.92%     -    0s
     0     0 9727.17302    0   34 10124.0000 9727.17302  3.92%     -    0s
     0     0 9801.03382    0   54 10124.0000 9801.03382  3.19%     -    0s
     0     0 9891.12121    0   22 10124.0000 9891.12121  2.30%     -    0s
     0     0 9920.91353    0   51 10124.0000 9920.91353  2.01%     -    0s
     0     0 9925.00000    0   19 10124.0000 9925.00000  1.97%     -    0s
     0     0 9925.00000    0   14 10124.0000 9925.00000  1.97%     -    0s
     0     0 9926.99185    0   48 10124.0000 9926.99185  1.95%     -    0s
     0     0 9944.77927    0   61 10124.0000 9944.77927  1.77%     -    0s
     0     0 9946.65439    0   51 10124.0000 9946.65439  1.75%     -    0s
     0     0 9947.01374    0   56 10124.0000 9947.01374  1.75%     -    0s
     0     0 10030.0000    0   22 10124.0000 10030.0000  0.93%     -    0s
     0     0 10030.1000    0   52 10124.0000 10030.1000  0.93%     -    0s
     0     0 10030.5000    0   43 10124.0000 10030.5000  0.92%     -    0s
     0     0 10030.5000    0   40 10124.0000 10030.5000  0.92%     -    0s
     0     0 10030.5000    0   42 10124.0000 10030.5000  0.92%     -    0s
     0     0 10030.5000    0   40 10124.0000 10030.5000  0.92%     -    0s
     0     0 10030.5000    0   36 10124.0000 10030.5000  0.92%     -    0s

Cutting planes:
  Gomory: 7
  Cover: 1
  Clique: 10
  MIR: 2
  StrongCG: 2
  GUB cover: 6
  Inf proof: 1
  Zero half: 5
  RLT: 3

Explored 1 nodes (2156 simplex iterations) in 0.32 seconds (0.49 work units)
Thread count was 8 (of 8 available processors)

Solution count 5: 10124 18578 34241 ... 77561

Optimal solution found (tolerance 1.00e-04)
Best objective 1.012400000000e+04, best bound 1.012400000000e+04, gap 0.0000%

Gurobi 9.5.2 (mac64[arm]) logging started Fri Apr 28 17:25:39 2023

Set parameter LogFile to value "Java/output/iterative_model_2_machine/scenario_seed_0_nJob_30_machineCount_2/mip_increment_1/log.txt"
Gurobi Optimizer version 9.5.2 build v9.5.2rc0 (mac64[arm])
Thread count: 8 physical cores, 8 logical processors, using up to 8 threads
Optimize a model with 1860 rows, 26412 columns and 337254 nonzeros
Model fingerprint: 0xbab6b5da
Variable types: 0 continuous, 26412 integer (26412 binary)
Coefficient statistics:
  Matrix range     [1e+00, 2e+02]
  Objective range  [4e+00, 3e+06]
  Bounds range     [1e+00, 1e+00]
  RHS range        [1e+00, 1e+00]

Warning: Completing partial solution with 26319 unfixed non-continuous variables out of 26412
User MIP start produced solution with objective 280137 (0.02s)
Loaded user MIP start with objective 280137

Presolve removed 195 rows and 5300 columns
Presolve time: 0.44s
Presolved: 1665 rows, 21112 columns, 270565 nonzeros
Variable types: 0 continuous, 21112 integer (21112 binary)
Found heuristic solution: objective 279969.00000

Root relaxation: objective 1.358323e+05, 14444 iterations, 1.42 seconds (3.36 work units)

    Nodes    |    Current Node    |     Objective Bounds      |     Work
 Expl Unexpl |  Obj  Depth IntInf | Incumbent    BestBd   Gap | It/Node Time

     0     0 135832.273    0  388 279969.000 135832.273  51.5%     -    2s
H    0     0                    279565.00000 135832.273  51.4%     -    2s
     0     0 151032.504    0  503 279565.000 151032.504  46.0%     -    5s
     0     0 152782.629    0  508 279565.000 152782.629  45.3%     -    7s
     0     0 152782.640    0  511 279565.000 152782.640  45.3%     -    7s
     0     0 159782.103    0  535 279565.000 159782.103  42.8%     -   11s
H    0     0                    278872.00000 159782.103  42.7%     -   11s
     0     0 163283.430    0  597 278872.000 163283.430  41.4%     -   13s
     0     0 163285.879    0  578 278872.000 163285.879  41.4%     -   13s
     0     0 179861.118    0  576 278872.000 179861.118  35.5%     -   17s
     0     0 181528.910    0  610 278872.000 181528.910  34.9%     -   20s
     0     0 181586.332    0  578 278872.000 181586.332  34.9%     -   21s
     0     0 181591.423    0  566 278872.000 181591.423  34.9%     -   21s
     0     0 186432.305    0  681 278872.000 186432.305  33.1%     -   25s
     0     0 187908.470    0  692 278872.000 187908.470  32.6%     -   27s
     0     0 188259.531    0  693 278872.000 188259.531  32.5%     -   29s
     0     0 188354.184    0  700 278872.000 188354.184  32.5%     -   32s
     0     0 188365.029    0  701 278872.000 188365.029  32.5%     -   32s
     0     0 197428.187    0  697 278872.000 197428.187  29.2%     -   38s
     0     0 199673.237    0  702 278872.000 199673.237  28.4%     -   45s
     0     0 200265.333    0  684 278872.000 200265.333  28.2%     -   50s
     0     0 200300.431    0  721 278872.000 200300.431  28.2%     -   50s
     0     0 200400.992    0  711 278872.000 200400.992  28.1%     -   51s
     0     0 200401.158    0  718 278872.000 200401.158  28.1%     -   52s
     0     0 207670.109    0  727 278872.000 207670.109  25.5%     -   55s
H    0     0                    278200.00000 207670.109  25.4%     -   56s
     0     0 208915.922    0  741 278200.000 208915.922  24.9%     -   58s
     0     0 209110.355    0  713 278200.000 209110.355  24.8%     -   60s
     0     0 209187.755    0  746 278200.000 209187.755  24.8%     -   60s
     0     0 209230.363    0  748 278200.000 209230.363  24.8%     -   61s
     0     0 209243.563    0  747 278200.000 209243.563  24.8%     -   61s
     0     0 211613.430    0  747 278200.000 211613.430  23.9%     -   65s
     0     0 212608.078    0  788 278200.000 212608.078  23.6%     -   69s
     0     0 213004.060    0  791 278200.000 213004.060  23.4%     -   72s
     0     0 213304.438    0  828 278200.000 213304.438  23.3%     -   73s
     0     0 213309.714    0  837 278200.000 213309.714  23.3%     -   74s
     0     0 217769.648    0  813 278200.000 217769.648  21.7%     -   81s
     0     0 218841.593    0  841 278200.000 218841.593  21.3%     -   84s
     0     0 219199.899    0  834 278200.000 219199.899  21.2%     -   86s
     0     0 219428.496    0  822 278200.000 219428.496  21.1%     -   88s
     0     0 219439.798    0  824 278200.000 219439.798  21.1%     -   88s
     0     0 221745.668    0  794 278200.000 221745.668  20.3%     -   92s
     0     0 221745.668    0  385 278200.000 221745.668  20.3%     -   94s
     0     0 221745.668    0  588 278200.000 221745.668  20.3%     -   97s
     0     0 221745.668    0  656 278200.000 221745.668  20.3%     -  101s
     0     0 221745.668    0  728 278200.000 221745.668  20.3%     -  104s
     0     0 221745.668    0  735 278200.000 221745.668  20.3%     -  106s
     0     0 221745.668    0  783 278200.000 221745.668  20.3%     -  108s
     0     0 221935.630    0  800 278200.000 221935.630  20.2%     -  109s
     0     0 221942.923    0  791 278200.000 221942.923  20.2%     -  109s
     0     0 223372.843    0  841 278200.000 223372.843  19.7%     -  112s
     0     0 224053.335    0  794 278200.000 224053.335  19.5%     -  114s
     0     0 224100.920    0  792 278200.000 224100.920  19.4%     -  115s
     0     0 224101.161    0  808 278200.000 224101.161  19.4%     -  115s
     0     0 224988.667    0  871 278200.000 224988.667  19.1%     -  117s
     0     0 225152.352    0  864 278200.000 225152.352  19.1%     -  122s
     0     0 225164.912    0  843 278200.000 225164.912  19.1%     -  122s
     0     0 225703.052    0  887 278200.000 225703.052  18.9%     -  125s
     0     0 225791.376    0  892 278200.000 225791.376  18.8%     -  125s
     0     0 225813.548    0  875 278200.000 225813.548  18.8%     -  126s
     0     0 226285.322    0  911 278200.000 226285.322  18.7%     -  129s
     0     0 226285.322    0  892 278200.000 226285.322  18.7%     -  130s
H    0     0                    274426.00000 226285.322  17.5%     -  133s
     0     2 226298.813    0  883 274426.000 226298.813  17.5%     -  134s
     1     4 226402.050    1  817 274426.000 226298.813  17.5%  3741  138s
     3     8 228957.032    2  766 274426.000 226402.050  17.5%  7532  142s
     7    16 235396.356    3  782 274426.000 228957.032  16.6% 10284  149s
    15    24 240165.491    4  782 274426.000 230176.871  16.1% 15082  151s
    31    40 238509.702    5  775 274426.000 230192.234  16.1% 12332  160s
H   32    40                    274421.00000 230192.234  16.1% 11947  160s
H   33    40                    274420.00000 230192.234  16.1% 11971  160s
    39    46 240318.446    6  781 274420.000 230192.234  16.1% 12054  165s
    56    63 241007.262    7  775 274420.000 230192.234  16.1% 10380  174s
H   64    71                    274288.00000 234034.693  14.7% 10112  178s
    74    80 241444.234    8  785 274288.000 234034.693  14.7%  9506  183s
    85    92 247720.781    8  699 274288.000 234820.430  14.4%  9279  187s
    97   101 243439.052    9  744 274288.000 234820.430  14.4%  8990  192s
   106   111 249000.977    9  712 274288.000 235287.584  14.2%  9092  198s
   118   123 243829.627   10  749 274288.000 235287.584  14.2%  8869  203s
   132   132 244096.514   11  767 274288.000 235287.584  14.2%  8483  209s
H  134   132                    274130.00000 235287.584  14.2%  8402  209s
   145   144 249363.955   12  784 274130.000 235287.584  14.2%  8474  212s
   161   155 246064.219   12  741 274130.000 235287.584  14.2%  8007  216s
   178   165 253976.010   13  740 274130.000 235287.584  14.2%  7692  221s
H  179   165                    274089.00000 235287.584  14.2%  7649  221s
H  181   165                    274087.00000 235287.584  14.2%  7624  221s
   194   173 248535.700   13  741 274087.000 235287.584  14.2%  7467  226s
   216   193 248988.212   14  752 274087.000 235287.584  14.2%  7418  236s
   245   206 249009.280   15  738 274087.000 235287.584  14.2%  7328  244s
   267   214 249230.957   16  763 274087.000 235287.584  14.2%  7124  253s
   279   224 249307.255   17  760 274087.000 235287.584  14.2%  7079  262s
   295   238 249308.927   18  766 274087.000 235287.584  14.2%  7119  271s
   321   248 256621.454   20  705 274087.000 235287.584  14.2%  7286  281s
   335   260 250891.453   20  772 274087.000 235287.584  14.2%  7419  297s
   357   276 256612.634   21  725 274087.000 235287.584  14.2%  7578  304s
   381   287 257657.567   22  742 274087.000 235287.584  14.2%  7634  313s
   402   303 260228.641   24  718 274087.000 235287.584  14.2%  7660  322s
   423   315 260356.716   25  699 274087.000 235287.584  14.2%  7688  331s
   455   335 260638.639   27  744 274087.000 235287.584  14.2%  7633  336s
   487   355 264233.700   30  706 274087.000 235287.584  14.2%  7561  343s
   525   375 264667.879   32  707 274087.000 235287.584  14.2%  7414  349s
   569   384 265625.811   19  588 274087.000 235287.584  14.2%  7182  355s
   608   403 273070.000   23  491 274087.000 235732.577  14.0%  7026  364s
   649   410 247002.754   10  747 274087.000 235732.577  14.0%  7170  371s
   696   428 263702.619   12  688 274087.000 235732.577  14.0%  7179  382s
H  739   449                    273965.00000 235732.577  14.0%  7131  389s
   782   454 270168.183   18  701 273965.000 235732.577  14.0%  7264  397s
   828   455     cutoff   21      273965.000 238387.183  13.0%  7293  413s
   851   481 246916.254    8  691 273965.000 238387.183  13.0%  7393  422s
   887   509 255741.118    8  744 273965.000 238387.183  13.0%  7483  433s
   929   522 261674.163   10  782 273965.000 238387.183  13.0%  7506  441s
   982   533     cutoff   12      273965.000 238387.183  13.0%  7598  451s
  1015   555 268447.589   15  749 273965.000 239963.759  12.4%  7612  460s
  1075   576 243791.062   13  773 273965.000 239964.308  12.4%  7575  468s
  1140   586 263073.685   19  668 273965.000 239964.308  12.4%  7587  478s
  1202   604 271359.902   22  599 273965.000 239964.308  12.4%  7624  490s
  1266   620     cutoff   27      273965.000 239964.308  12.4%  7702  504s
  1310   646 273059.125   30  529 273965.000 242005.982  11.7%  7671  516s
  1367   665 253990.067   17  700 273965.000 242005.982  11.7%  7681  531s
  1428   681 263481.472   19  649 273965.000 242005.982  11.7%  7558  544s
  1490   694 270148.037   24  648 273965.000 242482.424  11.5%  7421  560s
  1566   710 272338.621   17  626 273965.000 242482.424  11.5%  7267  574s
  1657   716 263901.388   19  630 273965.000 242482.424  11.5%  7048  582s

Cutting planes:
  Cover: 14
  Clique: 164
  MIR: 247
  StrongCG: 117
  GUB cover: 167
  Mod-K: 2
  RLT: 1

Explored 1722 nodes (12734111 simplex iterations) in 582.02 seconds (1878.25 work units)
Thread count was 8 (of 8 available processors)

Solution count 10: 273965 274087 274089 ... 278872

Time limit reached
Best objective 2.739650000000e+05, best bound 2.424824241809e+05, gap 11.4915%
